solution status: optimal solution found
objective value:                     115391.838051022
d11(0,0)                                            1 	(obj:0)
d11(1,1)                                            1 	(obj:0)
d11(1,2)                                            1 	(obj:0)
d11(2,3)                                            1 	(obj:0)
d11(3,7)                                            1 	(obj:0)
d11(3,8)                                            1 	(obj:0)
d11(3,9)                                            1 	(obj:0)
d11(3,11)                                           1 	(obj:0)
d11(3,13)                                           1 	(obj:0)
d11(3,14)                                           1 	(obj:0)
d12(2,4)                                            1 	(obj:0)
d12(2,6)                                            1 	(obj:0)
d21(3,7)                                            1 	(obj:0)
d21(3,9)                                            1 	(obj:0)
WB(2)                                3315.65537776224 	(obj:0)
y2(2,3)                          1.36124231574828e-009 	(obj:0)
y2(2,4)                              1385.48851144895 	(obj:0)
y2(2,6)                              1385.48851144895 	(obj:0)
STE(1,1)                             2173.49999999871 	(obj:0)
STE(0,0)                                         4725 	(obj:0)
STE(1,2)                              3831.7498988875 	(obj:0)
STE(2,3)                                       1795.5 	(obj:0)
STE(2,4)                             3111.71408587521 	(obj:0)
STE(2,5)                              3453.7498988875 	(obj:0)
STE(2,6)                               4769.963984764 	(obj:0)
STE(3,7)                            -240.749898888846 	(obj:0)
STE(3,8)                                       1417.5 	(obj:0)
STE(3,9)                             1075.46418698637 	(obj:0)
STE(3,10)                            2733.71408587521 	(obj:0)
STE(3,11)                            1417.49999999865 	(obj:0)
STE(3,12)                             3075.7498988875 	(obj:0)
STE(3,13)                            2733.71408587516 	(obj:0)
STE(3,14)                              4391.963984764 	(obj:0)
AVE(2)                               3315.65537776224 	(obj:0)
WB(3)                                3315.65799770399 	(obj:0)
y1(1,1)                              1956.15000000116 	(obj:0)
y1(1,2)                              463.725091001252 	(obj:0)
y1(3,7)                              1492.42490899996 	(obj:0)
y1(3,9)                              1492.42490899996 	(obj:0)
y1(3,11)                             1492.42490899996 	(obj:0)
y1(3,13)                             1492.42490899996 	(obj:0)
AVE(3)                               3315.65799770399 	(obj:0)
WG(1)                                3248.33172520918 	(obj:10)
BG(1)                                1421.14964213901 	(obj:10)
BG(2)                                2673.40993877551 	(obj:10)
BG(3)                                4196.29249897959 	(obj:10)
AVE(1)                               3248.33172520918 	(obj:0)
